NAME : eil101_solution.tour
TYPE : TOUR
DIMENSION : 102
COMMENT : Tour length: 900.457
COMMENT : Time elapsed: 403.37 [s]
TOUR_SECTION
0
29
31
89
62
63
48
35
47
81
16
85
15
90
84
60
83
44
7
45
46
18
10
32
28
23
53
3
20
39
57
91
58
98
4
88
26
68
19
65
64
70
34
33
77
78
76
11
25
52
94
96
86
56
1
72
71
73
40
14
42
59
17
82
43
37
13
21
74
55
22
66
38
24
54
79
67
2
80
8
50
69
30
87
9
61
6
51
5
93
95
92
97
36
99
41
12
100
27
75
49
0
-1
EOF
